1 12 75 1
200 140
 1 22 22 0 18 1 1 1
 2 36 26 0 26 1 1 1
 3 21 45 0 11 1 1 1
 4 45 35 0 30 1 1 1
 5 55 20 0 21 1 1 1
 6 33 34 0 19 1 1 1
 7 50 50 0 15 1 1 1
 8 55 45 0 16 1 1 1
 9 26 59 0 29 1 1 1
10 40 66 0 26 1 1 1
11 55 65 0 37 1 1 1
12 35 51 0 16 1 1 1
13 62 35 0 12 1 1 1
14 62 57 0 31 1 1 1
15 62 24 0  8 1 1 1
16 21 36 0 19 1 1 1
17 33 44 0 20 1 1 1
18  9 56 0 13 1 1 1
19 62 48 0 15 1 1 1
20 66 14 0 22 1 1 1
21 44 13 0 28 1 1 1
22 26 13 0 12 1 1 1
23 11 28 0  6 1 1 1
24  7 43 0 27 1 1 1
25 17 64 0 14 1 1 1
26 41 46 0 18 1 1 1
27 55 34 0 17 1 1 1
28 35 16 0 29 1 1 1
29 52 26 0 13 1 1 1
30 43 26 0 22 1 1 1
31 31 76 0 25 1 1 1
32 22 53 0 28 1 1 1
33 26 29 0 27 1 1 1
34 50 40 0 19 1 1 1
35 55 50 0 10 1 1 1
36 54 10 0 12 1 1 1
37 60 15 0 14 1 1 1
38 47 66 0 24 1 1 1
39 30 60 0 16 1 1 1
40 30 50 0 33 1 1 1
41 12 17 0 15 1 1 1
42 15 14 0 11 1 1 1
43 16 19 0 18 1 1 1
44 21 48 0 17 1 1 1
45 50 30 0 21 1 1 1
46 51 42 0 27 1 1 1
47 50 15 0 19 1 1 1
48 48 21 0 20 1 1 1
49 12 38 0  5 1 1 1
50 15 56 0 22 1 1 1
51 29 39 0 12 1 1 1
52 54 38 0 19 1 1 1
53 55 57 0 22 1 1 1
54 67 41 0 16 1 1 1
55 10 70 0  7 1 1 1
56  6 25 0 26 1 1 1
57 65 27 0 14 1 1 1
58 40 60 0 21 1 1 1
59 70 64 0 24 1 1 1
60 64  4 0 13 1 1 1
61 36  6 0 15 1 1 1
62 30 20 0 18 1 1 1
63 20 30 0 11 1 1 1
64 15  5 0 28 1 1 1
65 50 70 0  9 1 1 1
66 57 72 0 37 1 1 1
67 45 42 0 30 1 1 1
68 38 33 0 10 1 1 1
69 50  4 0  8 1 1 1
70 66  8 0 11 1 1 1
71 59  5 0  3 1 1 1
72 35 60 0  1 1 1 1
73 27 24 0  6 1 1 1
74 40 20 0 10 1 1 1
75 40 37 0 20 1 1 1
76 40 40 0   0 0 0
